
Gurobi 9.5.0 (win64) logging started Tue Dec  7 12:36:55 2021

Set parameter LogFile to value "../results/logs/log_2021_12_07_12_26.csv_4_45.log"
Set parameter Method to value 3
Gurobi Optimizer version 9.5.0 build v9.5.0rc5 (win64)
Thread count: 6 physical cores, 12 logical processors, using up to 12 threads
Optimize a model with 2962 rows, 9882 columns and 30211 nonzeros
Model fingerprint: 0xb105fd79
Variable types: 4941 continuous, 4941 integer (4941 binary)
Coefficient statistics:
  Matrix range     [1e+00, 4e+00]
  Objective range  [1e+00, 1e+00]
  Bounds range     [1e+00, 1e+00]
  RHS range        [1e+00, 5e+01]
Found heuristic solution: objective 36.0000000
Presolve removed 1475 rows and 7622 columns
Presolve time: 0.03s
Presolved: 1487 rows, 2260 columns, 8333 nonzeros
Variable types: 1293 continuous, 967 integer (941 binary)
Found heuristic solution: objective 50.0000000

Concurrent LP optimizer: primal simplex, dual simplex, and barrier
Showing barrier log only...

Root barrier log...

Ordering time: 0.00s

Barrier statistics:
 AA' NZ     : 6.354e+03
 Factor NZ  : 1.841e+04 (roughly 2 MB of memory)
 Factor Ops : 2.649e+05 (less than 1 second per iteration)
 Threads    : 1

                  Objective                Residual
Iter       Primal          Dual         Primal    Dual     Compl     Time
   0   5.79328517e+03  9.42385659e+03  2.57e+03 7.75e-01  3.58e+01     0s
   1   2.05657164e+03  1.02529585e+04  8.65e+02 7.11e-15  1.22e+01     0s
   2   4.14341885e+02  5.18763211e+03  5.94e+01 1.07e-14  1.40e+00     0s
   3   2.63456860e+02  1.02956113e+03  7.60e+00 1.29e-14  1.93e-01     0s
   4   2.50705471e+02  4.42165592e+02  7.66e-01 7.66e-15  3.67e-02     0s
   5   2.66865914e+02  3.85419280e+02  3.67e-01 4.78e-15  2.19e-02     0s
   6   2.79188212e+02  3.34096235e+02  1.29e-01 3.37e-15  9.82e-03     0s
   7   2.82963469e+02  3.25032955e+02  9.60e-02 2.37e-15  7.50e-03     0s
   8   2.87688279e+02  3.14707078e+02  5.97e-02 1.64e-15  4.80e-03     0s
   9   2.92113777e+02  3.04656727e+02  2.75e-02 2.46e-15  2.22e-03     0s
  10   2.94989166e+02  3.01100274e+02  1.18e-02 1.28e-15  1.08e-03     0s
  11   2.95931397e+02  3.00104985e+02  7.12e-03 2.11e-15  7.33e-04     0s
  12   2.95958066e+02  2.99733765e+02  7.00e-03 1.78e-15  6.65e-04     0s
  13   2.96588553e+02  2.98265128e+02  4.09e-03 2.35e-15  2.98e-04     0s

Barrier performed 13 iterations in 0.08 seconds (0.04 work units)
Barrier solve interrupted - model solved by another algorithm


Solved with primal simplex

Root relaxation: objective 2.975175e+02, 1377 iterations, 0.03 seconds (0.02 work units)

    Nodes    |    Current Node    |     Objective Bounds      |     Work
 Expl Unexpl |  Obj  Depth IntInf | Incumbent    BestBd   Gap | It/Node Time

     0     0  297.51754    0  610   50.00000  297.51754   495%     -    0s
H    0     0                      96.0000000  297.51754   210%     -    0s
     0     0  167.55140    0  276   96.00000  167.55140  74.5%     -    0s
     0     0  163.50086    0  273   96.00000  163.50086  70.3%     -    0s
     0     0  163.24425    0  273   96.00000  163.24425  70.0%     -    0s
     0     0  163.13919    0  273   96.00000  163.13919  69.9%     -    0s
     0     0  150.27101    0  196   96.00000  150.27101  56.5%     -    0s
     0     0  148.43874    0  205   96.00000  148.43874  54.6%     -    0s
     0     0  148.25736    0  200   96.00000  148.25736  54.4%     -    0s
     0     0  148.23299    0  199   96.00000  148.23299  54.4%     -    0s
     0     0  143.80679    0  166   96.00000  143.80679  49.8%     -    0s
     0     0  143.07770    0  146   96.00000  143.07770  49.0%     -    0s
     0     0  142.93997    0  160   96.00000  142.93997  48.9%     -    0s
     0     0  140.45351    0  140   96.00000  140.45351  46.3%     -    0s
     0     0  139.75242    0  134   96.00000  139.75242  45.6%     -    0s
     0     0  139.54462    0  133   96.00000  139.54462  45.4%     -    0s
     0     0  138.77209    0  160   96.00000  138.77209  44.6%     -    0s
     0     0  138.77209    0  160   96.00000  138.77209  44.6%     -    0s
     0     2  138.77209    0  160   96.00000  138.77209  44.6%     -    0s
H   94    97                     131.0000000  137.62215  5.06%  67.6    1s
*  830   450              27     132.0000000  136.28137  3.24%  53.1    2s
H 1831   456                     133.0000000  135.59768  1.95%  53.5    4s
  2036   424     cutoff   19       133.00000  135.38116  1.79%  53.2    5s

Cutting planes:
  Gomory: 125
  Implied bound: 13
  MIR: 800
  RLT: 178
  Relax-and-lift: 36

Explored 3417 nodes (177212 simplex iterations) in 7.13 seconds (6.79 work units)
Thread count was 12 (of 12 available processors)

Solution count 6: 133 132 131 ... 36
No other solutions better than 133

Optimal solution found (tolerance 1.00e-04)
Best objective 1.330000004162e+02, best bound 1.330000004162e+02, gap 0.0000%
